N = 6;
H = 5;
T = 2;

avail = array3d(1..N, 1..H, 1..T, [1, 6, 0, 2, 8, 6, 10, 9, 7, 9, 7, 2, 9, 3, 5, 0, 8, 4, 0, 5, 1, 3, 6, 8, 2, 6, 3, 7, 3, 1, 3, 2, 6, 0, 10, 2, 1, 10, 3, 6, 4, 7, 10, 7, 10, 6, 7, 3, 5, 1, 1, 7, 2, 3, 2, 3, 7, 6, 6, 3]);

r = array2d(1..H, 1..T, [1, 1, 2, 1, 1, 1, 1, 2, 2, 1]);
